25	3	3
5	7	9	49	70	89	
0	0	0	0	9	8	4	9	8	5	23	2	3	4	5	6	7	8	9	10	11	12	13	14	15	16	17	18	19	20	21	22	23	24
261	5	1	2	4	1	10	3	2	6	1	5
277	3	1	2	2	5	10	3	6	2	1	25
1	3	1	1	1	1	9	2	2	3	1	20
6	3	2	3	2	7	1	9	8	9	1	21
3	1	1	3	6	7	7	10	5	4	1	21
3	3	1	3	5	8	5	4	1	7	1	19
300	2	1	3	10	2	1	10	5	6	1	9
226	4	1	3	1	5	7	9	7	9	1	25
2	4	2	2	2	8	6	2	7	3	1	11
3	2	1	1	1	3	9	7	2	3	1	25
156	2	2	3	1	6	1	5	10	1	1	25
230	5	2	1	2	10	3	2	9	7	1	25
339	2	2	2	8	10	2	5	9	8	1	16
3	5	1	3	3	10	6	8	2	3	1	25
179	2	1	3	10	3	5	9	9	7	1	25
1	2	1	1	2	10	3	2	5	3	1	25
239	2	2	3	3	6	2	6	7	1	1	25
166	2	1	1	2	5	1	4	9	9	1	25
4	4	2	1	1	1	9	6	8	1	1	25
3	1	1	2	8	8	4	3	6	2	1	25
6	1	2	3	9	7	2	2	9	6	1	25
5	1	1	1	4	1	1	6	6	8	1	25
1	5	2	2	7	8	2	7	1	10	1	25
0	0	0	0	6	2	1	5	8	9	0
